186 194 204 262 306 408 538 637 741 915
194 497 409 306 809 386 706 733 257 583
257 411 577 444 712 687 389 807 512 831
0 31 919 512 116 251 320 309 171 389
55 820 740 585 483 152 907 405 344 250
404 204 533 683 911 309 788 878 577 456
152 859 497 186 573 866 608 344 296 445
309 444 645 833 358 500 740 558 919 353
31 116 826 919 746 809 464 227 391 179
353 583 404 761 443 629 878 911 687 523
